{"lblp_lower": [357.68630738522955, 360.00000000000006, 360.53333333333336, 361.4000000000001], "cuttingPlaneBendInfo": [{"tot_cut_value": 0, "TOT_gen_cut": 0, "tot_time_opt": 0, "max_time_opt": 0}, {"tot_cut_value": 0, "TOT_gen_cut": 0, "tot_time_opt": 0, "max_time_opt": 0}, {"tot_cut_value": 0, "TOT_gen_cut": 0, "tot_time_opt": 0, "max_time_opt": 0}, {"tot_cut_value": 0, "TOT_gen_cut": 0, "tot_time_opt": 43.672661542892456, "max_time_opt": 6.017930030822754}], "time_compress": [0, 0, 0, 0], "ub_lp": [383.50000000000006, 361.40000000000015, 361.40000000000015, 361.40000000000015], "prob_sizes_at_start": [{"timeGraph": 104, "capGraph": 102, "ngGraph": 52}, {"timeGraph": 112, "capGraph": 157, "ngGraph": 64}, {"timeGraph": 112, "capGraph": 166, "ngGraph": 65}, {"timeGraph": 113, "capGraph": 166, "ngGraph": 69}], "prob_sizes_after_compress": [{"timeGraph": 14, "capGraph": 38, "ngGraph": 15}, {"timeGraph": 30, "capGraph": 73, "ngGraph": 9}, {"timeGraph": 28, "capGraph": 88, "ngGraph": 11}, {"timeGraph": 36, "capGraph": 93, "ngGraph": 8}], "prob_sizes_after_split": [{"timeGraph": 112, "capGraph": 157, "ngGraph": 64}, {"timeGraph": 112, "capGraph": 166, "ngGraph": 65}, {"timeGraph": 113, "capGraph": 166, "ngGraph": 69}, {"timeGraph": 109, "capGraph": 147, "ngGraph": 53}], "did_compress": [true, true, true, true], "lp_time_project": [0.02198505401611328, 0.007163286209106445, 0.006333112716674805, 0.006406068801879883], "lp_time_LB": [0.08937311172485352, 0.1700601577758789, 0.17595386505126953, 0.18389415740966797], "ilp_time": [], "history_of_graphs_by_iter": [], "ROOT_LP_PRIOR_ADDING_CUTS": 361.4000000000001, "OUR_ilp_objective": 361.4000000000001, "OUR_MIP_Lower_Bound": 361.4, "OUR_ilp_time": 0.32303404808044434, "OUR_gurobi_MILP_str": "Gurobi Optimizer version 12.0.1 build v12.0.1rc0 (mac64[arm] - Darwin 24.5.0 24F74)\n\nCPU model: Apple M1\nThread count: 8 physical cores, 8 logical processors, using up to 8 threads\n\nNon-default parameters:\nTimeLimit  1000\n\nWLS license 2690165 - registered to Optym\nOptimize a model with 14147 rows, 19501 columns and 72061 nonzeros\nModel fingerprint: 0x0f490863\nVariable types: 17771 continuous, 1730 integer (1730 binary)\nCoefficient statistics:\n  Matrix range     [3e-01, 1e+03]\n  Objective range  [1e+00, 6e+01]\n  Bounds range     [1e+00, 1e+03]\n  RHS range        [1e+00, 1e+03]\nPresolve removed 9210 rows and 8925 columns\nPresolve time: 0.17s\nPresolved: 4937 rows, 10576 columns, 77058 nonzeros\nVariable types: 8828 continuous, 1748 integer (1732 binary)\nFound heuristic solution: objective 2407.8000000\nFound heuristic solution: objective 2373.5000000\nFound heuristic solution: objective 2369.4000000\n\nRoot relaxation: objective 3.614000e+02, 2644 iterations, 0.10 seconds (0.21 work units)\n\n    Nodes    |    Current Node    |     Objective Bounds      |     Work\n Expl Unexpl |  Obj  Depth IntInf | Incumbent    BestBd   Gap | It/Node Time\n\n*    0     0               0     361.4000000  361.40000  0.00%     -    0s\n\nExplored 1 nodes (2644 simplex iterations) in 0.32 seconds (0.58 work units)\nThread count was 8 (of 8 available processors)\n\nSolution count 4: 361.4 2369.4 2373.5 2407.8 \n\nOptimal solution found (tolerance 1.00e-04)\nBest objective 3.614000000000e+02, best bound 3.614000000000e+02, gap 0.0000%\n", "jy_opt": {"ParetoEps": 1e-05, "turn_off_time_windows": false, "deactivate_time_graph": false, "deactivate_demand_graph": false, "epsilon": 0.0001, "weight_slack_projector": 1e-05, "weight_compress": 0.01, "num_cust_use": 50, "dem_step_sz": 1, "time_step_sz": 25, "use_compression": 1, "max_iterations_loop_compress_project": 100, "do_round_dist_times": 1, "my_shift_bet_time_win": 0.0001, "num_terms_per_bin_init_construct": 10, "allOneBig_init": 0, "min_inc_2_compress": 0.1, "save_graph_each_iter": 0, "use_Xpress": 0, "use_ineq": 1, "xpress_file_loc": "/Users/julian/Documents/FICO_Xpress_Config/xpauth.xpr", "run_baseline": 0, "verbose": 0, "use_NG_graph": 1, "num_NG": 5, "in_demo_mode": 0, "threshold_split": 0.01, "offset_cost_edge_project": 0, "use_classic_compress": 1, "use_classic_compress_last": 0, "num_thresh_split_projector": 10, "lplb_solver": 4, "compresss_solver": 0, "proj_solver": 4, "use_julians_custom_lp_solver": 0, "do_ilp": 1, "roundingDiscretization_num_digits_keep": 3, "doExrtraRemovalEdgesLB": 0, "use_gurobi": 1, "max_ILP_time": 1000, "use_fancy_ng_graph": 1, "use_dem_graph": 1, "use_time_graph": 1, "num_multiplys_demand": 0, "DEBUG_ALLOW_DUMB_EDGES": 0, "add_all_ng_split_at_end": 0, "do_split_based_init": 1, "think_compress": 0, "use_delta_in_milp": [1], "use_delta_in_lp": 1, "turn_off_non_active_fg_project": 0, "use_new_valid_ineq": 0, "digit_mult_use": 10, "use_branch_on_g": true, "LAB_MP_ON": 0, "LAB_MP_neigh_use_power": 10, "LAB_MP_num_ineq_use": 10, "do_remove_actions_from_incumbant": 1, "ub_use_remove": 2407.800999999998, "use_packing_in_construction": 1, "maxVarsAdd_in_ITER": 10, "use_ng_size_init": 0, "do_presolve": 0, "use_diving_ineq": 0, "BEND_MIN_LP_OBJECTIVE_CUT": 0.1, "BEND_USE_RAND": 0, "BEND_MAX_SIZE_CHOOSE_K": 260, "BEND_VAL_STOP_ADDING_CUTS": 100000000, "BEND_MY_SIZES_USE": [9], "NUMERICAL_BEND_OFFSET_COST_CUT": 0.0001, "NUMERICAL_BEND_EPSILON_MULT_PARETO_OBJ": 0.001, "NO_PARETO_NUMERICAL_BEND_OFFSET_COST_CUT": 0, "NO_PARETO_BEND_VAL_STOP_ADDING_CUTS": 1, "NO_PARETO_EPSILON_MAX_VAL_CON": 0.01, "BENDERS_NEIGH_SZ_USE": 9, "Actions_of_given_sol": [], "all_vars_binary": 0, "use_ng": 1, "restore_after_each_step": 1, "compress_solver": 1, "DEBUG_NG_turn_off_CLEAN": false, "max_nodes_split": Infinity}, "output_ilp_solution": {"act_0_2": 1, "act_1_0": 1, "act_2_4": 1, "act_3_1": 1, "act_4_51": 1, "act_5_3": 1, "act_6_7": 1, "act_7_9": 1, "act_8_5": 1, "act_9_10": 1, "act_10_8": 1, "act_11_51": 1, "act_12_16": 1, "act_13_11": 1, "act_14_15": 1, "act_15_13": 1, "act_16_17": 1, "act_17_18": 1, "act_18_14": 1, "act_19_23": 1, "act_20_51": 1, "act_21_20": 1, "act_22_21": 1, "act_23_24": 1, "act_24_26": 1, "act_25_22": 1, "act_26_28": 1, "act_27_25": 1, "act_28_29": 1, "act_29_27": 1, "act_30_34": 1, "act_31_32": 1, "act_32_30": 1, "act_33_51": 1, "act_34_36": 1, "act_35_33": 1, "act_36_37": 1, "act_37_38": 1, "act_38_35": 1, "act_39_43": 1, "act_40_39": 1, "act_41_40": 1, "act_42_41": 1, "act_43_45": 1, "act_44_47": 1, "act_45_44": 1, "act_46_51": 1, "act_47_49": 1, "act_48_46": 1, "act_49_48": 1, "act_50_6": 1, "act_50_12": 1, "act_50_19": 1, "act_50_31": 1, "act_50_42": 1}, "Actions_of_given_sol": "none just used source and sink terms", "actions_used": ["act_0_2", "act_1_0", "act_2_4", "act_3_1", "act_4_51", "act_5_3", "act_6_7", "act_7_9", "act_8_5", "act_9_10", "act_10_8", "act_11_51", "act_12_16", "act_13_11", "act_14_15", "act_15_13", "act_16_17", "act_17_18", "act_18_14", "act_19_23", "act_20_51", "act_21_20", "act_22_21", "act_23_24", "act_24_26", "act_25_22", "act_26_28", "act_27_25", "act_28_29", "act_29_27", "act_30_34", "act_31_32", "act_32_30", "act_33_51", "act_34_36", "act_35_33", "act_36_37", "act_37_38", "act_38_35", "act_39_43", "act_40_39", "act_41_40", "act_42_41", "act_43_45", "act_44_47", "act_45_44", "act_46_51", "act_47_49", "act_48_46", "act_49_48", "act_50_6", "act_50_12", "act_50_19", "act_50_31", "act_50_42"], "init_default_solution_is_empty": false, "objective_of_initial_sol": 2407.799999999998, "my_paths": "[[50, 6, 7, 9, 10, 8, 5, 3, 1, 0, 2, 4, 51], [50, 12, 16, 17, 18, 14, 15, 13, 11, 51], [50, 19, 23, 24, 26, 28, 29, 27, 25, 22, 21, 20, 51], [50, 31, 32, 30, 34, 36, 37, 38, 35, 33, 51], [50, 42, 41, 40, 39, 43, 45, 44, 47, 49, 48, 46, 51]]"}